#! single-point CCSD(T)/cc-pvdz on water

print '        <<< Literal input to NWChem >>>'

nwchem {
memory 600 mb
geometry
O     0.000000000000    0.000000000000   -0.065638538099
H     0.000000000000   -0.757480611647    0.520865616174
H     0.000000000000    0.757480611647    0.520865616174
end

basis spherical
* library cc-pvdz
end

scf
 rhf
 thresh 1.0e-12 #Not the same as e_convergence and d_convergence
end
tce
 scf
 ccsd(t)
 thresh 1.0e-12
end

task tce energy
}

energy('nwchem')

compare_values(-76.026760737445, get_variable('scf total energy'), 6, 'SCF')  #TEST
compare_values(-76.240101984477249, get_variable('ccsd total energy'), 6, 'CCSD')  #TEST
compare_values(-0.213341247031778, get_variable('ccsd correlation energy'), 6, 'CCSD corl')  #TEST
compare_values(-76.243161524860440, get_variable('ccsd(t) total energy'), 6, 'CCSD(T)')  #TEST
compare_values(-0.216400787414976, get_variable('ccsd(t) correlation energy'), 6, 'CCSD(T) corl')  #TEST

clean()
clean_variables()
nwchem {}

print '        <<< Translation of NWChem input to Psi4 format to NWChem >>>'

memory 600 mb

molecule {
O
H 1 R
H 1 R 2 A

R=0.958
A=104.5
}

set {
basis cc-pvdz
reference rhf
nwchem_scf_thresh 1.0e-12
nwchem_tce_thresh 1.0e-12
nwchem_tce ccsd(t)
}

energy('nwchem-tce')

compare_values(-76.026760737445, get_variable('scf total energy'), 6, 'SCF')  #TEST
compare_values(-76.240101984477249, get_variable('ccsd total energy'), 6, 'CCSD')  #TEST
compare_values(-0.213341247031778, get_variable('ccsd correlation energy'), 6, 'CCSD corl')  #TEST
compare_values(-76.243161524860440, get_variable('ccsd(t) total energy'), 6, 'CCSD(T)')  #TEST
compare_values(-0.216400787414976, get_variable('ccsd(t) correlation energy'), 6, 'CCSD(T) corl')  #TEST
