print '        <<< PSI4 INPUT >>>'

memory 400 mb

molecule {
O
H 1 R
H 1 R 2 A

R=0.958
A=104.5
}

set {
 basis cc-pvdz
 reference rhf
 d_convergence 8
 df_scf_guess false 
 scf_type direct 
}
 
gradient('scf')

