#! single-point UHF/cc-pVDZ  on NH2 

print '        <<< Literal nwchem.nw to NWChem >>>'

nwchem {
memory 400 mb 

geometry
zmat
 N
 H 1 1.008
 H 1 1.008 2 105.0
end
end

basis spherical
* library cc-pVDZ
end

scf
uhf
nopen 1
thresh 1.0e-8
end

task scf energy
}

energy('nwchem')


clean()
clean_variables()
nwchem {}

print '        <<< Translation of nwchem.nw to Psi4 format to NWChem >>>'

banner('UHF-SCF energy calculation')

molecule {
0 2
N
H 1 R
H 1 R 2 A

R=1.008
A=105.0
}

set {
basis cc-pVDZ
nwchem_scf uhf
nwchem_scf_nopen 1
nwchem_scf_thresh 1.0e-8
#To get the same energy from Psi4, add commands below
#df_scf_guess false #Doing nothing for NWChem
#scf_type direct  #Doing nothing for NWChem
}

energy('nwchem-scf')


clean()
clean_variables()
nwchem {}

print '        <<< Translation of nwchem.nw to Psi4 format to NWChem >>>'

banner('UHF-SCF energy calculation')

molecule {
0 2
N
H 1 R
H 1 R 2 A

R=1.008
A=105.0
}

set {
basis cc-pvdz
reference uhf 
nwchem_scf_nopen 1
nwchem_scf_thresh 1.0e-8
}

energy('nwchem-scf')


