#! single-point CCSDTQ/6-31g* on water

print '        <<< Literal input to NWChem >>>'

nwchem {
memory total 2000 global 1700 mb verify
geometry nocenter noautosym
O     0.000000000000    0.000000000000   -0.065638538099
H     0.000000000000   -0.757480611647    0.520865616174
H     0.000000000000    0.757480611647    0.520865616174
symmetry c2v
end

basis
* library 6-31g*
end

scf
 rhf
 thresh 1.0e-7 #Not the same as e_convergence and d_convergence
end
tce
 scf
 ccsdtq
 thresh 1.0e-7
end

task tce energy
}

energy('nwchem')

clean()
clean_variables()
nwchem {}

print '        <<< Translation of NWChem input to Psi4 format to NWChem >>>'

molecule {
O
H 1 R
H 1 R 2 A

R=0.958
A=104.5
symmetry c2v
}

set {
basis 6-31g*
reference rhf
nwchem_memory [total,2000,global,1700,mb,verify]
nwchem_scf_thresh 1.0e-7
nwchem_tce_thresh 1.0e-7
nwchem_tce ccsdtq
}

energy('nwchem-tce')


