#! single-point HF/cc-pVDZ (Cartesian) on NH2 
# With same options
# PSI4 energy = -55.5629496588105525

print '        <<< Literal nwchem.nw to NWChem >>>'

nwchem {
memory 300 mb
geometry
zmat
 N
 H 1 1.008
 H 1 1.008 2 105.0
end
end

basis cartesian
* library cc-pVDZ
end

scf
rohf
nopen 1
thresh 1.0e-8
end

task scf energy
}

energy('nwchem')

compare_values(-55.562949656313, get_variable('scf total energy'), 6, 'SCF')  #TEST
compare_values(-55.562949656313, get_variable('current energy'), 6, 'SCF')  #TEST
compare_values(-55.562949656313, get_variable('current reference energy'), 6, 'SCF')  #TEST

clean()
clean_variables()
nwchem {}

print '        <<< Translation of nwchem.nw to Psi4 format to NWChem >>>'

banner('ROHF energy calculation')

molecule {
0 2
N
H 1 R
H 1 R 2 A

R=1.008
A=105.0
}

set {
basis cc-pVDZ
puream false
nwchem_scf rohf
nwchem_scf_thresh 1.0e-8
#To get the same energy from Psi4, add commands below
#df_scf_guess false #Doing nothing for NWChem
scf_type direct  
}

energy('nwchem-scf')

compare_values(-55.562949656313, get_variable('scf total energy'), 6, 'SCF')  #TEST
compare_values(-55.562949656313, get_variable('current energy'), 6, 'SCF')  #TEST
compare_values(-55.562949656313, get_variable('current reference energy'), 6, 'SCF')  #TEST

clean()
clean_variables()
nwchem {}

print '        <<< Thorough Psi4 format >>>'

banner('ROHF energy calculation')

molecule {
0 2
N
H 1 R
H 1 R 2 A

R=1.008
A=105.0
}

set {
basis cc-pvdz
puream false
reference rohf 
e_convergence 8
scf_type direct
}

energy('nwchem-scf')

compare_values(-55.562949656313, get_variable('scf total energy'), 6, 'SCF')  #TEST
compare_values(-55.562949656313, get_variable('current energy'), 6, 'SCF')  #TEST
compare_values(-55.562949656313, get_variable('current reference energy'), 6, 'SCF')  #TEST
