#! Geometry optimization HF/6-31g* on water
print '        <<< Literal nwchem input to NWChem >>>'

memory 400 mb 

nwchem {
geometry nocenter noautosym 
O     0.000000000000    0.000000000000   -0.065638538099
H     0.000000000000   -0.757480611647    0.520865616174
H     0.000000000000    0.757480611647    0.520865616174
symmetry c2v
end

basis 
* library 6-31g*
end

scf
 rhf
 thresh 1.0e-8 #Not the same as e_convergence and d_convergence
 direct #not necessary
end

task scf optimize
}

energy('nwchem')

clean()
clean_variables()
nwchem {}  # clear literal block since running sequentially


print '        <<< Translation of nwchem.nw to Psi4 format to NWChem >>>'

memory 400 mb

molecule {
O     0.000000000000    0.000000000000   -0.065638538099
H     0.000000000000   -0.757480611647    0.520865616174
H     0.000000000000    0.757480611647    0.520865616174
symmetry c2v
}

set {
basis 6-31g*
nwchem_scf_thresh 1.0e-8 
nwchem_scf rhf 
}

#To get the same energy from Psi4, add commands below
set df_scf_guess false #Doing nothing for NWChem
set scf_type direct  
#NWChem default convergence criterian 
set g_convergence GAU

nwchem {}  # clear literal block since running sequentially

optimize('nwchem-scf')

clean()
clean_variables()
nwchem {}

